100
32
10
8
5
27
8
16
4
13
7
27
2
3
11
3
20
2
18
23
13
13
1
14
1
2
1
2
17
1
2
3
18
7
3
1
18
1
1
1
1
1
2
2
3
17
4
2
2
7
19
3
1
1
1
7
18
1
2
4
2
2
2
4
9
1
3
1
3
17
1
2
1
2
1
1
3
17
2
1
1
20
6
2
3
1
5
18
9
4
2
1
17
2
1
1
1
1
1
1
9
2